x = 25;
y = 14;
c = 77;
n = 43;

p = [77  18  64  98  66  96  29  57  27  83  56  32  24  41  100  31  33  23  88  49  16  38  93  28  53  32  46  46  31  64  84  32  67  90  60  82  79  18  65  89  72  68  39];
w = [4  7  5  6  7  2  1  5  3  10  4  4  2  10  4  5  9  1  8  10  3  3  9  2  9  5  8  8  7  5  6  2  6  1  4  7  1  2  9  5  5  8  1];
s = [4  6  8  11  7  9  3  6  14  12  8  2  1  9  11  12  4  4  9  10  3  1  10  14  14  4  10  10  3  3  5  12  2  11  14  7  14  12  1  12  8  1  10];
